(set-logic ALL)
(declare-fun num_couriers () Int)
(assert (= num_couriers 2))
(declare-fun num_items () Int)
(assert (= num_items 6))
(declare-fun lower_bound () Int)
(assert (= lower_bound 8))
(declare-fun upper_bound () Int)
(assert (= upper_bound 40))
(declare-fun courier_1_capa () Int)
(assert (= courier_1_capa 15))
(declare-fun courier_2_capa () Int)
(assert (= courier_2_capa 10))
(declare-fun item_1_size () Int)
(assert (= item_1_size 3))
(declare-fun item_2_size () Int)
(assert (= item_2_size 2))
(declare-fun item_3_size () Int)
(assert (= item_3_size 6))
(declare-fun item_4_size () Int)
(assert (= item_4_size 5))
(declare-fun item_5_size () Int)
(assert (= item_5_size 4))
(declare-fun item_6_size () Int)
(assert (= item_6_size 4))
(declare-fun distances_1 () (Array Int Int))
(assert (= (select distances_1 1) 0))
(assert (= (select distances_1 2) 3))
(assert (= (select distances_1 3) 4))
(assert (= (select distances_1 4) 5))
(assert (= (select distances_1 5) 6))
(assert (= (select distances_1 6) 6))
(assert (= (select distances_1 7) 2))
(declare-fun distances_2 () (Array Int Int))
(assert (= (select distances_2 1) 3))
(assert (= (select distances_2 2) 0))
(assert (= (select distances_2 3) 1))
(assert (= (select distances_2 4) 4))
(assert (= (select distances_2 5) 5))
(assert (= (select distances_2 6) 7))
(assert (= (select distances_2 7) 3))
(declare-fun distances_3 () (Array Int Int))
(assert (= (select distances_3 1) 4))
(assert (= (select distances_3 2) 1))
(assert (= (select distances_3 3) 0))
(assert (= (select distances_3 4) 5))
(assert (= (select distances_3 5) 6))
(assert (= (select distances_3 6) 6))
(assert (= (select distances_3 7) 4))
(declare-fun distances_4 () (Array Int Int))
(assert (= (select distances_4 1) 4))
(assert (= (select distances_4 2) 4))
(assert (= (select distances_4 3) 5))
(assert (= (select distances_4 4) 0))
(assert (= (select distances_4 5) 3))
(assert (= (select distances_4 6) 3))
(assert (= (select distances_4 7) 2))
(declare-fun distances_5 () (Array Int Int))
(assert (= (select distances_5 1) 6))
(assert (= (select distances_5 2) 7))
(assert (= (select distances_5 3) 8))
(assert (= (select distances_5 4) 3))
(assert (= (select distances_5 5) 0))
(assert (= (select distances_5 6) 2))
(assert (= (select distances_5 7) 4))
(declare-fun distances_6 () (Array Int Int))
(assert (= (select distances_6 1) 6))
(assert (= (select distances_6 2) 7))
(assert (= (select distances_6 3) 8))
(assert (= (select distances_6 4) 3))
(assert (= (select distances_6 5) 2))
(assert (= (select distances_6 6) 0))
(assert (= (select distances_6 7) 4))
(declare-fun distances_7 () (Array Int Int))
(assert (= (select distances_7 1) 2))
(assert (= (select distances_7 2) 3))
(assert (= (select distances_7 3) 4))
(assert (= (select distances_7 4) 3))
(assert (= (select distances_7 5) 4))
(assert (= (select distances_7 6) 4))
(assert (= (select distances_7 7) 0))
(declare-fun stop_1_1 () Int)
(assert (>= stop_1_1 1))
(assert (<= stop_1_1 6))
(declare-fun stop_1_2 () Int)
(assert (>= stop_1_2 1))
(assert (<= stop_1_2 7))
(declare-fun stop_1_3 () Int)
(assert (>= stop_1_3 1))
(assert (<= stop_1_3 7))
(declare-fun stop_1_4 () Int)
(assert (>= stop_1_4 1))
(assert (<= stop_1_4 7))
(declare-fun stop_1_5 () Int)
(assert (>= stop_1_5 1))
(assert (<= stop_1_5 7))
(declare-fun stop_1_6 () Int)
(assert (>= stop_1_6 1))
(assert (<= stop_1_6 7))
(declare-fun stop_2_1 () Int)
(assert (>= stop_2_1 1))
(assert (<= stop_2_1 6))
(declare-fun stop_2_2 () Int)
(assert (>= stop_2_2 1))
(assert (<= stop_2_2 7))
(declare-fun stop_2_3 () Int)
(assert (>= stop_2_3 1))
(assert (<= stop_2_3 7))
(declare-fun stop_2_4 () Int)
(assert (>= stop_2_4 1))
(assert (<= stop_2_4 7))
(declare-fun stop_2_5 () Int)
(assert (>= stop_2_5 1))
(assert (<= stop_2_5 7))
(declare-fun stop_2_6 () Int)
(assert (>= stop_2_6 1))
(assert (<= stop_2_6 7))
(declare-fun item_1_resp () Int)
(assert (>= item_1_resp 1))
(assert (<= item_1_resp 2))
(declare-fun item_2_resp () Int)
(assert (>= item_2_resp 1))
(assert (<= item_2_resp 2))
(declare-fun item_3_resp () Int)
(assert (>= item_3_resp 1))
(assert (<= item_3_resp 2))
(declare-fun item_4_resp () Int)
(assert (>= item_4_resp 1))
(assert (<= item_4_resp 2))
(declare-fun item_5_resp () Int)
(assert (>= item_5_resp 1))
(assert (<= item_5_resp 2))
(declare-fun item_6_resp () Int)
(assert (>= item_6_resp 1))
(assert (<= item_6_resp 2))
(declare-fun distance_1_traveled () Int)
(assert (>= distance_1_traveled 0))
(assert (<= distance_1_traveled 40))
(declare-fun distance_2_traveled () Int)
(assert (>= distance_2_traveled 0))
(assert (<= distance_2_traveled 40))
(declare-fun load_1 () Int)
(assert (= load_1 (+(ite (= item_1_resp 1) item_1_size 0)(ite (= item_2_resp 1) item_2_size 0)(ite (= item_3_resp 1) item_3_size 0)(ite (= item_4_resp 1) item_4_size 0)(ite (= item_5_resp 1) item_5_size 0)(ite (= item_6_resp 1) item_6_size 0))))
(assert (>= courier_1_capa load_1))
(declare-fun load_2 () Int)
(assert (= load_2 (+(ite (= item_1_resp 2) item_1_size 0)(ite (= item_2_resp 2) item_2_size 0)(ite (= item_3_resp 2) item_3_size 0)(ite (= item_4_resp 2) item_4_size 0)(ite (= item_5_resp 2) item_5_size 0)(ite (= item_6_resp 2) item_6_size 0))))
(assert (>= courier_2_capa load_2))
(assert (or (= item_1_resp 1)(= item_2_resp 1)(= item_3_resp 1)(= item_4_resp 1)(= item_5_resp 1)(= item_6_resp 1)))
(assert (or (= item_1_resp 2)(= item_2_resp 2)(= item_3_resp 2)(= item_4_resp 2)(= item_5_resp 2)(= item_6_resp 2)))
(assert (=> (> courier_1_capa courier_2_capa) (> load_1 load_2)))
(assert (=> (> courier_2_capa courier_1_capa) (> load_2 load_1)))
(assert (=> (<= 1 (+ (ite (= item_1_resp 1) 1 0) (ite (= item_2_resp 1) 1 0) (ite (= item_3_resp 1) 1 0) (ite (= item_4_resp 1) 1 0) (ite (= item_5_resp 1) 1 0) (ite (= item_6_resp 1) 1 0) )) (< stop_1_1 7)))(assert (=> (< stop_1_1 7) (<= 1 (+ (ite (= item_1_resp 1) 1 0) (ite (= item_2_resp 1) 1 0) (ite (= item_3_resp 1) 1 0) (ite (= item_4_resp 1) 1 0) (ite (= item_5_resp 1) 1 0) (ite (= item_6_resp 1) 1 0) ))))(assert (=> (<= 2 (+ (ite (= item_1_resp 1) 1 0) (ite (= item_2_resp 1) 1 0) (ite (= item_3_resp 1) 1 0) (ite (= item_4_resp 1) 1 0) (ite (= item_5_resp 1) 1 0) (ite (= item_6_resp 1) 1 0) )) (< stop_1_2 7)))(assert (=> (< stop_1_2 7) (<= 2 (+ (ite (= item_1_resp 1) 1 0) (ite (= item_2_resp 1) 1 0) (ite (= item_3_resp 1) 1 0) (ite (= item_4_resp 1) 1 0) (ite (= item_5_resp 1) 1 0) (ite (= item_6_resp 1) 1 0) ))))(assert (=> (<= 3 (+ (ite (= item_1_resp 1) 1 0) (ite (= item_2_resp 1) 1 0) (ite (= item_3_resp 1) 1 0) (ite (= item_4_resp 1) 1 0) (ite (= item_5_resp 1) 1 0) (ite (= item_6_resp 1) 1 0) )) (< stop_1_3 7)))(assert (=> (< stop_1_3 7) (<= 3 (+ (ite (= item_1_resp 1) 1 0) (ite (= item_2_resp 1) 1 0) (ite (= item_3_resp 1) 1 0) (ite (= item_4_resp 1) 1 0) (ite (= item_5_resp 1) 1 0) (ite (= item_6_resp 1) 1 0) ))))(assert (=> (<= 4 (+ (ite (= item_1_resp 1) 1 0) (ite (= item_2_resp 1) 1 0) (ite (= item_3_resp 1) 1 0) (ite (= item_4_resp 1) 1 0) (ite (= item_5_resp 1) 1 0) (ite (= item_6_resp 1) 1 0) )) (< stop_1_4 7)))(assert (=> (< stop_1_4 7) (<= 4 (+ (ite (= item_1_resp 1) 1 0) (ite (= item_2_resp 1) 1 0) (ite (= item_3_resp 1) 1 0) (ite (= item_4_resp 1) 1 0) (ite (= item_5_resp 1) 1 0) (ite (= item_6_resp 1) 1 0) ))))(assert (=> (<= 5 (+ (ite (= item_1_resp 1) 1 0) (ite (= item_2_resp 1) 1 0) (ite (= item_3_resp 1) 1 0) (ite (= item_4_resp 1) 1 0) (ite (= item_5_resp 1) 1 0) (ite (= item_6_resp 1) 1 0) )) (< stop_1_5 7)))(assert (=> (< stop_1_5 7) (<= 5 (+ (ite (= item_1_resp 1) 1 0) (ite (= item_2_resp 1) 1 0) (ite (= item_3_resp 1) 1 0) (ite (= item_4_resp 1) 1 0) (ite (= item_5_resp 1) 1 0) (ite (= item_6_resp 1) 1 0) ))))(assert (=> (<= 6 (+ (ite (= item_1_resp 1) 1 0) (ite (= item_2_resp 1) 1 0) (ite (= item_3_resp 1) 1 0) (ite (= item_4_resp 1) 1 0) (ite (= item_5_resp 1) 1 0) (ite (= item_6_resp 1) 1 0) )) (< stop_1_6 7)))(assert (=> (< stop_1_6 7) (<= 6 (+ (ite (= item_1_resp 1) 1 0) (ite (= item_2_resp 1) 1 0) (ite (= item_3_resp 1) 1 0) (ite (= item_4_resp 1) 1 0) (ite (= item_5_resp 1) 1 0) (ite (= item_6_resp 1) 1 0) ))))(assert (=> (<= 1 (+ (ite (= item_1_resp 2) 1 0) (ite (= item_2_resp 2) 1 0) (ite (= item_3_resp 2) 1 0) (ite (= item_4_resp 2) 1 0) (ite (= item_5_resp 2) 1 0) (ite (= item_6_resp 2) 1 0) )) (< stop_2_1 7)))(assert (=> (< stop_2_1 7) (<= 1 (+ (ite (= item_1_resp 2) 1 0) (ite (= item_2_resp 2) 1 0) (ite (= item_3_resp 2) 1 0) (ite (= item_4_resp 2) 1 0) (ite (= item_5_resp 2) 1 0) (ite (= item_6_resp 2) 1 0) ))))(assert (=> (<= 2 (+ (ite (= item_1_resp 2) 1 0) (ite (= item_2_resp 2) 1 0) (ite (= item_3_resp 2) 1 0) (ite (= item_4_resp 2) 1 0) (ite (= item_5_resp 2) 1 0) (ite (= item_6_resp 2) 1 0) )) (< stop_2_2 7)))(assert (=> (< stop_2_2 7) (<= 2 (+ (ite (= item_1_resp 2) 1 0) (ite (= item_2_resp 2) 1 0) (ite (= item_3_resp 2) 1 0) (ite (= item_4_resp 2) 1 0) (ite (= item_5_resp 2) 1 0) (ite (= item_6_resp 2) 1 0) ))))(assert (=> (<= 3 (+ (ite (= item_1_resp 2) 1 0) (ite (= item_2_resp 2) 1 0) (ite (= item_3_resp 2) 1 0) (ite (= item_4_resp 2) 1 0) (ite (= item_5_resp 2) 1 0) (ite (= item_6_resp 2) 1 0) )) (< stop_2_3 7)))(assert (=> (< stop_2_3 7) (<= 3 (+ (ite (= item_1_resp 2) 1 0) (ite (= item_2_resp 2) 1 0) (ite (= item_3_resp 2) 1 0) (ite (= item_4_resp 2) 1 0) (ite (= item_5_resp 2) 1 0) (ite (= item_6_resp 2) 1 0) ))))(assert (=> (<= 4 (+ (ite (= item_1_resp 2) 1 0) (ite (= item_2_resp 2) 1 0) (ite (= item_3_resp 2) 1 0) (ite (= item_4_resp 2) 1 0) (ite (= item_5_resp 2) 1 0) (ite (= item_6_resp 2) 1 0) )) (< stop_2_4 7)))(assert (=> (< stop_2_4 7) (<= 4 (+ (ite (= item_1_resp 2) 1 0) (ite (= item_2_resp 2) 1 0) (ite (= item_3_resp 2) 1 0) (ite (= item_4_resp 2) 1 0) (ite (= item_5_resp 2) 1 0) (ite (= item_6_resp 2) 1 0) ))))(assert (=> (<= 5 (+ (ite (= item_1_resp 2) 1 0) (ite (= item_2_resp 2) 1 0) (ite (= item_3_resp 2) 1 0) (ite (= item_4_resp 2) 1 0) (ite (= item_5_resp 2) 1 0) (ite (= item_6_resp 2) 1 0) )) (< stop_2_5 7)))(assert (=> (< stop_2_5 7) (<= 5 (+ (ite (= item_1_resp 2) 1 0) (ite (= item_2_resp 2) 1 0) (ite (= item_3_resp 2) 1 0) (ite (= item_4_resp 2) 1 0) (ite (= item_5_resp 2) 1 0) (ite (= item_6_resp 2) 1 0) ))))(assert (=> (<= 6 (+ (ite (= item_1_resp 2) 1 0) (ite (= item_2_resp 2) 1 0) (ite (= item_3_resp 2) 1 0) (ite (= item_4_resp 2) 1 0) (ite (= item_5_resp 2) 1 0) (ite (= item_6_resp 2) 1 0) )) (< stop_2_6 7)))(assert (=> (< stop_2_6 7) (<= 6 (+ (ite (= item_1_resp 2) 1 0) (ite (= item_2_resp 2) 1 0) (ite (= item_3_resp 2) 1 0) (ite (= item_4_resp 2) 1 0) (ite (= item_5_resp 2) 1 0) (ite (= item_6_resp 2) 1 0) ))))(assert (=> (= item_1_resp 1) (or (= stop_1_1 1)(= stop_1_2 1)(= stop_1_3 1)(= stop_1_4 1)(= stop_1_5 1)(= stop_1_6 1))))
(assert (=> (= item_2_resp 1) (or (= stop_1_1 2)(= stop_1_2 2)(= stop_1_3 2)(= stop_1_4 2)(= stop_1_5 2)(= stop_1_6 2))))
(assert (=> (= item_3_resp 1) (or (= stop_1_1 3)(= stop_1_2 3)(= stop_1_3 3)(= stop_1_4 3)(= stop_1_5 3)(= stop_1_6 3))))
(assert (=> (= item_4_resp 1) (or (= stop_1_1 4)(= stop_1_2 4)(= stop_1_3 4)(= stop_1_4 4)(= stop_1_5 4)(= stop_1_6 4))))
(assert (=> (= item_5_resp 1) (or (= stop_1_1 5)(= stop_1_2 5)(= stop_1_3 5)(= stop_1_4 5)(= stop_1_5 5)(= stop_1_6 5))))
(assert (=> (= item_6_resp 1) (or (= stop_1_1 6)(= stop_1_2 6)(= stop_1_3 6)(= stop_1_4 6)(= stop_1_5 6)(= stop_1_6 6))))
(assert (=> (= item_1_resp 2) (or (= stop_2_1 1)(= stop_2_2 1)(= stop_2_3 1)(= stop_2_4 1)(= stop_2_5 1)(= stop_2_6 1))))
(assert (=> (= item_2_resp 2) (or (= stop_2_1 2)(= stop_2_2 2)(= stop_2_3 2)(= stop_2_4 2)(= stop_2_5 2)(= stop_2_6 2))))
(assert (=> (= item_3_resp 2) (or (= stop_2_1 3)(= stop_2_2 3)(= stop_2_3 3)(= stop_2_4 3)(= stop_2_5 3)(= stop_2_6 3))))
(assert (=> (= item_4_resp 2) (or (= stop_2_1 4)(= stop_2_2 4)(= stop_2_3 4)(= stop_2_4 4)(= stop_2_5 4)(= stop_2_6 4))))
(assert (=> (= item_5_resp 2) (or (= stop_2_1 5)(= stop_2_2 5)(= stop_2_3 5)(= stop_2_4 5)(= stop_2_5 5)(= stop_2_6 5))))
(assert (=> (= item_6_resp 2) (or (= stop_2_1 6)(= stop_2_2 6)(= stop_2_3 6)(= stop_2_4 6)(= stop_2_5 6)(= stop_2_6 6))))
(declare-const successors (Array Int Int))
(assert (=> (not (= stop_1_1 7)) (= (select successors stop_1_1) stop_1_2)))
(assert (=> (not (= stop_1_2 7)) (= (select successors stop_1_2) stop_1_3)))
(assert (=> (not (= stop_1_3 7)) (= (select successors stop_1_3) stop_1_4)))
(assert (=> (not (= stop_1_4 7)) (= (select successors stop_1_4) stop_1_5)))
(assert (=> (not (= stop_1_5 7)) (= (select successors stop_1_5) stop_1_6)))
(assert (=> (not (= stop_2_1 7)) (= (select successors stop_2_1) stop_2_2)))
(assert (=> (not (= stop_2_2 7)) (= (select successors stop_2_2) stop_2_3)))
(assert (=> (not (= stop_2_3 7)) (= (select successors stop_2_3) stop_2_4)))
(assert (=> (not (= stop_2_4 7)) (= (select successors stop_2_4) stop_2_5)))
(assert (=> (not (= stop_2_5 7)) (= (select successors stop_2_5) stop_2_6)))
(assert (= distance_1_traveled (+ (ite (= item_1_resp 1) (select distances_1 (select successors 1)) 0)(ite (= item_2_resp 1) (select distances_2 (select successors 2)) 0)(ite (= item_3_resp 1) (select distances_3 (select successors 3)) 0)(ite (= item_4_resp 1) (select distances_4 (select successors 4)) 0)(ite (= item_5_resp 1) (select distances_5 (select successors 5)) 0)(ite (= item_6_resp 1) (select distances_6 (select successors 6)) 0)(select distances_7 stop_1_1))))
(assert (= distance_2_traveled (+ (ite (= item_1_resp 2) (select distances_1 (select successors 1)) 0)(ite (= item_2_resp 2) (select distances_2 (select successors 2)) 0)(ite (= item_3_resp 2) (select distances_3 (select successors 3)) 0)(ite (= item_4_resp 2) (select distances_4 (select successors 4)) 0)(ite (= item_5_resp 2) (select distances_5 (select successors 5)) 0)(ite (= item_6_resp 2) (select distances_6 (select successors 6)) 0)(select distances_7 stop_2_1))))
(assert (<= distance_1_traveled 14))
(assert (<= distance_2_traveled 14))
(check-sat)
(get-model)
